c https://steinlib.zib.de/showset.php?ES60FST
p edge 162 238
e 42 67
e 32 61
e 29 61
e 29 32
e 61 62
e 62 63
e 63 66
e 57 63
e 4 65
e 4 64
e 4 29
e 64 65
e 49 66
e 49 65
e 49 62
e 44 49
e 44 66
e 39 70
e 39 67
e 50 67
e 40 68
e 8 68
e 8 71
e 8 40
e 68 79
e 14 69
e 14 64
e 16 69
e 60 76
e 45 71
e 45 70
e 72 93
e 18 72
e 18 70
e 7 73
e 7 69
e 27 74
e 27 73
e 74 75
e 75 76
e 75 83
e 3 76
e 17 77
e 17 71
e 77 78
e 77 87
e 78 79
e 78 88
e 79 80
e 79 90
e 80 84
e 2 85
e 2 80
e 47 82
e 47 81
e 47 73
e 81 82
e 23 83
e 23 82
e 23 74
e 54 86
e 54 81
e 84 85
e 26 86
e 26 85
e 87 88
e 87 94
e 88 89
e 89 90
e 89 95
e 90 91
e 90 96
e 91 92
e 92 106
e 12 109
e 12 92
e 12 84
e 43 99
e 43 86
e 93 94
e 93 97
e 11 95
e 11 102
e 11 94
e 11 88
e 95 96
e 95 104
e 96 105
e 51 97
e 51 100
e 51 72
e 97 101
e 98 99
e 98 111
e 98 110
e 99 112
e 34 113
e 34 99
e 100 101
e 101 102
e 102 103
e 103 104
e 104 105
e 104 107
e 21 106
e 21 108
e 21 105
e 21 91
e 107 108
e 107 117
e 41 109
e 41 108
e 41 106
e 109 110
e 24 30
e 24 109
e 24 110
e 30 111
e 30 53
e 53 112
e 53 121
e 53 111
e 112 113
e 112 122
e 113 114
e 114 115
e 114 123
e 59 115
e 59 83
e 25 116
e 25 100
e 25 101
e 55 117
e 55 118
e 55 116
e 55 103
e 46 124
e 46 115
e 118 119
e 118 127
e 118 125
e 119 120
e 119 128
e 120 134
e 33 135
e 33 120
e 33 117
e 121 122
e 122 123
e 122 130
e 123 131
e 35 124
e 35 123
e 19 158
e 19 124
e 38 125
e 38 126
e 38 116
e 48 127
e 48 132
e 48 126
e 48 125
e 127 128
e 127 133
e 129 147
e 129 141
e 31 130
e 31 154
e 31 129
e 31 121
e 130 131
e 130 155
e 131 156
e 56 132
e 56 136
e 56 126
e 132 133
e 36 134
e 36 137
e 36 133
e 36 128
e 134 135
e 134 139
e 135 140
e 13 136
e 137 138
e 138 139
e 139 140
e 139 142
e 140 143
e 37 141
e 37 146
e 37 140
e 22 142
e 22 137
e 22 138
e 142 143
e 143 144
e 10 20
e 10 136
e 144 145
e 144 148
e 145 146
e 145 149
e 58 147
e 58 151
e 58 146
e 58 141
e 147 153
e 52 148
e 52 150
e 52 142
e 148 149
e 148 150
e 15 151
e 15 150
e 15 149
e 151 152
e 152 153
e 153 154
e 154 155
e 154 159
e 155 156
e 155 161
e 156 157
e 157 158
e 9 158
e 28 159
e 28 160
e 28 152
e 28 153
e 159 160
e 6 162
e 6 157
e 160 161
e 1 162
e 1 161
e 5 162
